\ENCODING=ISO-8859-1
\Problem name: GMKP - Callable Library

Maximize
 obj: 39 x_1_1 + 53 x_1_2 + 75 x_1_3 + 37 x_1_4 + 42 x_1_5 + 81 x_1_6
      + 61 x_1_7 + 12 x_1_8 + 62 x_1_9 + 95 x_1_10 + 33 x_1_11 + 50 x_1_12
      + 18 x_1_13 + 21 x_1_14 + 55 x_1_15 + 48 x_1_16 + 12 x_1_17 + 16 x_1_18
      + 68 x_1_19 + 97 x_1_20 + 39 x_1_21 + 70 x_1_22 + 31 x_1_23 + 15 x_1_24
      + 77 x_1_25 + 24 x_2_1 + 86 x_2_2 + 49 x_2_3 + 92 x_2_4 + 92 x_2_5
      + 72 x_2_6 + 30 x_2_7 + 54 x_2_8 + 66 x_2_9 + 42 x_2_10 + 39 x_2_11
      + 81 x_2_12 + 92 x_2_13 + 43 x_2_14 + 78 x_2_15 + 60 x_2_16 + 73 x_2_17
      + 92 x_2_18 + 27 x_2_19 + 70 x_2_20 + 52 x_2_21 + 87 x_2_22 + 11 x_2_23
      + 44 x_2_24 + 59 x_2_25
Subject To
 capacity_1:            85 x_1_1 + 48 x_1_2 + 46 x_1_3 + 10 x_1_4 + 26 x_1_5
                        + 75 x_1_6 + 61 x_1_7 + 26 x_1_8 + 75 x_1_9 + 90 x_1_10
                        + 18 x_1_11 + 17 x_1_12 + 99 x_1_13 + 34 x_1_14
                        + 38 x_1_15 + 22 x_1_16 + 73 x_1_17 + 15 x_1_18
                        + 69 x_1_19 + 73 x_1_20 + 41 x_1_21 + 85 x_1_22
                        + 75 x_1_23 + 92 x_1_24 + 10 x_1_25 + 79 y_1_1
                        + 71 y_1_2 + 88 y_1_3 + 51 y_1_4 + 85 y_1_5 <= 651
 capacity_2:            85 x_2_1 + 48 x_2_2 + 46 x_2_3 + 10 x_2_4 + 26 x_2_5
                        + 75 x_2_6 + 61 x_2_7 + 26 x_2_8 + 75 x_2_9 + 90 x_2_10
                        + 18 x_2_11 + 17 x_2_12 + 99 x_2_13 + 34 x_2_14
                        + 38 x_2_15 + 22 x_2_16 + 73 x_2_17 + 15 x_2_18
                        + 69 x_2_19 + 73 x_2_20 + 41 x_2_21 + 85 x_2_22
                        + 75 x_2_23 + 92 x_2_24 + 10 x_2_25 + 79 y_2_1
                        + 71 y_2_2 + 88 y_2_3 + 51 y_2_4 + 85 y_2_5 <= 486
 max_one_bin_x_1:       x_1_1 + x_2_1 <= 1
 max_one_bin_x_2:       x_1_2 + x_2_2 <= 1
 max_one_bin_x_3:       x_1_3 + x_2_3 <= 1
 max_one_bin_x_4:       x_1_4 + x_2_4 <= 1
 max_one_bin_x_5:       x_1_5 + x_2_5 <= 1
 max_one_bin_x_6:       x_1_6 + x_2_6 <= 1
 max_one_bin_x_7:       x_1_7 + x_2_7 <= 1
 max_one_bin_x_8:       x_1_8 + x_2_8 <= 1
 max_one_bin_x_9:       x_1_9 + x_2_9 <= 1
 max_one_bin_x_10:      x_1_10 + x_2_10 <= 1
 max_one_bin_x_11:      x_1_11 + x_2_11 <= 1
 max_one_bin_x_12:      x_1_12 + x_2_12 <= 1
 max_one_bin_x_13:      x_1_13 + x_2_13 <= 1
 max_one_bin_x_14:      x_1_14 + x_2_14 <= 1
 max_one_bin_x_15:      x_1_15 + x_2_15 <= 1
 max_one_bin_x_16:      x_1_16 + x_2_16 <= 1
 max_one_bin_x_17:      x_1_17 + x_2_17 <= 1
 max_one_bin_x_18:      x_1_18 + x_2_18 <= 1
 max_one_bin_x_19:      x_1_19 + x_2_19 <= 1
 max_one_bin_x_20:      x_1_20 + x_2_20 <= 1
 max_one_bin_x_21:      x_1_21 + x_2_21 <= 1
 max_one_bin_x_22:      x_1_22 + x_2_22 <= 1
 max_one_bin_x_23:      x_1_23 + x_2_23 <= 1
 max_one_bin_x_24:      x_1_24 + x_2_24 <= 1
 max_one_bin_x_25:      x_1_25 + x_2_25 <= 1
 max_b_bin_y_1:         y_1_1 + y_2_1 <= 2
 max_b_bin_y_2:         y_1_2 + y_2_2 <= 1
 max_b_bin_y_3:         y_1_3 + y_2_3 <= 1
 max_b_bin_y_4:         y_1_4 + y_2_4 <= 2
 max_b_bin_y_5:         y_1_5 + y_2_5 <= 1
 dependent_decision_1:  x_1_1 + x_1_6 + x_1_8 + x_1_20 - 25 y_1_1 <= 0
 dependent_decision_2:  x_1_2 + x_1_9 + x_1_12 + x_1_17 + x_1_18 + x_1_21
                        + x_1_22 + x_1_25 - 25 y_1_2 <= 0
 dependent_decision_3:  x_1_3 + x_1_7 + x_1_10 + x_1_15 + x_1_23 + x_1_24
                        - 25 y_1_3 <= 0
 dependent_decision_4:  x_1_4 + x_1_14 + x_1_19 - 25 y_1_4 <= 0
 dependent_decision_5:  x_1_5 + x_1_11 + x_1_13 + x_1_16 - 25 y_1_5 <= 0
 dependent_decision_6:  x_2_1 + x_2_6 + x_2_8 + x_2_20 - 25 y_2_1 <= 0
 dependent_decision_7:  x_2_2 + x_2_9 + x_2_12 + x_2_17 + x_2_18 + x_2_21
                        + x_2_22 + x_2_25 - 25 y_2_2 <= 0
 dependent_decision_8:  x_2_3 + x_2_7 + x_2_10 + x_2_15 + x_2_23 + x_2_24
                        - 25 y_2_3 <= 0
 dependent_decision_9:  x_2_4 + x_2_14 + x_2_19 - 25 y_2_4 <= 0
 dependent_decision_10: x_2_5 + x_2_11 + x_2_13 + x_2_16 - 25 y_2_5 <= 0
Bounds
 0 <= x_1_1 <= 1
 0 <= x_1_2 <= 1
 0 <= x_1_3 <= 1
 0 <= x_1_4 <= 1
 0 <= x_1_5 <= 1
 0 <= x_1_6 <= 1
 0 <= x_1_7 <= 1
 0 <= x_1_8 <= 1
 0 <= x_1_9 <= 1
 0 <= x_1_10 <= 1
 0 <= x_1_11 <= 1
 0 <= x_1_12 <= 1
 0 <= x_1_13 <= 1
 0 <= x_1_14 <= 1
 0 <= x_1_15 <= 1
 0 <= x_1_16 <= 1
 0 <= x_1_17 <= 1
 0 <= x_1_18 <= 1
 0 <= x_1_19 <= 1
 0 <= x_1_20 <= 1
 0 <= x_1_21 <= 1
 0 <= x_1_22 <= 1
 0 <= x_1_23 <= 1
 0 <= x_1_24 <= 1
 0 <= x_1_25 <= 1
 0 <= x_2_1 <= 1
 0 <= x_2_2 <= 1
 0 <= x_2_3 <= 1
 0 <= x_2_4 <= 1
 0 <= x_2_5 <= 1
 0 <= x_2_6 <= 1
 0 <= x_2_7 <= 1
 0 <= x_2_8 <= 1
 0 <= x_2_9 <= 1
 0 <= x_2_10 <= 1
 0 <= x_2_11 <= 1
 0 <= x_2_12 <= 1
 0 <= x_2_13 <= 1
 0 <= x_2_14 <= 1
 0 <= x_2_15 <= 1
 0 <= x_2_16 <= 1
 0 <= x_2_17 <= 1
 0 <= x_2_18 <= 1
 0 <= x_2_19 <= 1
 0 <= x_2_20 <= 1
 0 <= x_2_21 <= 1
 0 <= x_2_22 <= 1
 0 <= x_2_23 <= 1
 0 <= x_2_24 <= 1
 0 <= x_2_25 <= 1
 0 <= y_1_1 <= 1
 0 <= y_1_2 <= 1
 0 <= y_1_3 <= 1
 0 <= y_1_4 <= 1
 0 <= y_1_5 <= 1
 0 <= y_2_1 <= 1
 0 <= y_2_2 <= 1
 0 <= y_2_3 <= 1
 0 <= y_2_4 <= 1
 0 <= y_2_5 <= 1
Binaries
 x_1_1  x_1_2  x_1_3  x_1_4  x_1_5  x_1_6  x_1_7  x_1_8  x_1_9  x_1_10  x_1_11 
 x_1_12  x_1_13  x_1_14  x_1_15  x_1_16  x_1_17  x_1_18  x_1_19  x_1_20 
 x_1_21  x_1_22  x_1_23  x_1_24  x_1_25  x_2_1  x_2_2  x_2_3  x_2_4  x_2_5 
 x_2_6  x_2_7  x_2_8  x_2_9  x_2_10  x_2_11  x_2_12  x_2_13  x_2_14  x_2_15 
 x_2_16  x_2_17  x_2_18  x_2_19  x_2_20  x_2_21  x_2_22  x_2_23  x_2_24 
 x_2_25  y_1_1  y_1_2  y_1_3  y_1_4  y_1_5  y_2_1  y_2_2  y_2_3  y_2_4  y_2_5 
End
